molecule h2o {
O
H 1 R
H 1 R 2 A

R = 1.84345
A = 104.5
symmetry c1
}

plugin_load("./variational_decomp_fci.so")

set {
  basis xxxxx
  df_basis_scf cc-pvdz-jkfit
}

set plugin_example {
  print 1
}

energy('scf')

plugin("./variational_decomp_fci.so")
