molecule hf {
F
H 1 R

R = 0.917

symmetry c1
}

plugin_load("./variational_decomp_fci.so")

set {
  basis xxxxx
  df_basis_scf cc-pvdz-jkfit
}

set plugin_example {
  print 1
}

energy('scf')

plugin("./variational_decomp_fci.so")
