molecule h2 {
H
H 1 R

R = .74

symmetry c1
}

plugin_load("./variational_decomp_fci.so")

set {
  basis xxxxx
  df_basis_scf cc-pvdz-jkfit
}

set plugin_example {
  print 1
}

energy('scf')

plugin("./variational_decomp_fci.so")
