molecule h2 {
H
H 1 R1
H 2 R2
H 3 R3

R1 = .74
R2 = 1.74
R3 = 2.74

symmetry c1
}

plugin_load("./variational_decomp_fci.so")

set {
  basis sto-3g 
  df_basis_scf cc-pvdz-jkfit
}

set plugin_example {
  print 1
}

energy('scf')

plugin("./variational_decomp_fci.so")
