
# PYTHONPATH must include directory above plugin directory.
#     Define either externally or here, then import plugin.
sys.path.insert(0, './..')
import variational_decomp_fci

molecule {
O
H 1 R
H 1 R 2 A

R = .9
A = 104.5
}

set {
  basis sto-3g
}

set variational_decomp_fci {
  print 1
}

energy('variational_decomp_fci')

variational_decomp_fci.exampleFN()

